20
1 0 32
2 0 25
2 1 32
3 0 7
3 1 25
3 2 5
4 0 50
4 1 13
4 2 54
4 3 14
5 0 46
5 1 21
5 2 9
5 3 47
5 4 57
6 0 24
6 1 41
6 2 57
6 3 51
6 4 43
6 5 36
7 0 35
7 1 29
7 2 5
7 3 45
7 4 55
7 5 9
7 6 6
8 0 53
8 1 29
8 2 14
8 3 51
8 4 58
8 5 10
8 6 43
8 7 10
9 0 26
9 1 5
9 2 6
9 3 51
9 4 54
9 5 35
9 6 14
9 7 43
9 8 38
10 0 28
10 1 57
10 2 26
10 3 1
10 4 19
10 5 10
10 6 19
10 7 21
10 8 29
10 9 47
11 0 38
11 1 11
11 2 21
11 3 46
11 4 12
11 5 50
11 6 30
11 7 4
11 8 1
11 9 42
11 10 14
12 0 20
12 1 39
12 2 38
12 3 33
12 4 34
12 5 17
12 6 30
12 7 14
12 8 12
12 9 35
12 10 41
12 11 7
13 0 10
13 1 17
13 2 1
13 3 21
13 4 2
13 5 33
13 6 34
13 7 10
13 8 14
13 9 50
13 10 12
13 11 53
13 12 53
14 0 54
14 1 54
14 2 46
14 3 58
14 4 51
14 5 8
14 6 59
14 7 30
14 8 38
14 9 50
14 10 4
14 11 20
14 12 20
14 13 51
15 0 28
15 1 26
15 2 7
15 3 48
15 4 54
15 5 57
15 6 41
15 7 45
15 8 53
15 9 23
15 10 35
15 11 12
15 12 36
15 13 32
15 14 49
16 0 11
16 1 47
16 2 20
16 3 33
16 4 32
16 5 32
16 6 21
16 7 42
16 8 41
16 9 4
16 10 57
16 11 59
16 12 22
16 13 52
16 14 10
16 15 35
17 0 18
17 1 46
17 2 46
17 3 24
17 4 39
17 5 58
17 6 17
17 7 41
17 8 41
17 9 48
17 10 38
17 11 36
17 12 7
17 13 5
17 14 60
17 15 41
17 16 9
18 0 7
18 1 52
18 2 34
18 3 50
18 4 43
18 5 13
18 6 27
18 7 34
18 8 55
18 9 47
18 10 48
18 11 49
18 12 10
18 13 23
18 14 44
18 15 15
18 16 13
18 17 56
19 0 49
19 1 59
19 2 50
19 3 40
19 4 9
19 5 33
19 6 24
19 7 37
19 8 15
19 9 57
19 10 39
19 11 28
19 12 53
19 13 38
19 14 17
19 15 10
19 16 58
19 17 25
19 18 19
